NAME : portcgen-26-22
COMMENT : portcgen N=26, seed=22
TYPE : TSP
DIMENSION : 26
EDGE_WEIGHT_TYPE : EUC_2D
NODE_COORD_SECTION
1 17737 -150709
2 -143942 -21496
3 67269 342118
4 -42765 -68834
5 10745 315424
6 -137018 44886
7 127465 -158650
8 116479 -101158
9 -104075 404762
10 312690 15868
11 -147821 322675
12 -58993 -211448
13 319101 160284
14 -209609 -105651
15 125210 114004
16 114763 29177
17 191255 100394
18 220855 59934
19 15980 129415
20 33511 -274757
21 -208516 -29170
22 -257116 -381799
23 -6746 87739
24 106906 -20951
25 -71801 85053
26 -245259 199972
